p cnf 63 54
3 4 5 0
-3 -4 -5 0
5 12 13 0
-5 -12 -13 0
6 8 10 0
-6 -8 -10 0
7 24 25 0
-7 -24 -25 0
8 15 17 0
-8 -15 -17 0
9 12 15 0
-9 -12 -15 0
9 40 41 0
-9 -40 -41 0
10 24 26 0
-10 -24 -26 0
11 60 61 0
-11 -60 -61 0
12 16 20 0
-12 -16 -20 0
12 35 37 0
-12 -35 -37 0
14 48 50 0
-14 -48 -50 0
15 20 25 0
-15 -20 -25 0
15 36 39 0
-15 -36 -39 0
16 30 34 0
-16 -30 -34 0
18 24 30 0
-18 -24 -30 0
20 21 29 0
-20 -21 -29 0
20 48 52 0
-20 -48 -52 0
21 28 35 0
-21 -28 -35 0
24 32 40 0
-24 -32 -40 0
24 45 51 0
-24 -45 -51 0
27 36 45 0
-27 -36 -45 0
28 45 53 0
-28 -45 -53 0
30 40 50 0
-30 -40 -50 0
33 44 55 0
-33 -44 -55 0
36 48 60 0
-36 -48 -60 0
40 42 58 0
-40 -42 -58 0
